NAME : instances/clustered-mixed-tsp/instance-12.tsp
COMMENT : No Comment
TYPE : TSP
DIMENSION: 35
EDGE_WEIGHT_TYPE : EUC_2D
NODE_COORD_SECTION
1 268 1179 
2 1280 1556 
3 1514 241 
4 586 1427 
5 30 183 
6 1108 1479 
7 1088 151 
8 1384 921 
9 1925 30 
10 667 762 
11 966 114 
12 1604 1949 
13 1974 1489 
14 25 430 
15 1910 359 
16 301 745 
17 1747 1259 
18 1153 884 
19 1172 592 
20 1625 1386 
21 1388 187 
22 420 1970 
23 531 474 
24 381 1375 
25 936 105 
26 1092 1786 
27 34 1497 
28 303 329 
29 1462 1948 
30 1876 1636 
31 603 1274 
32 1379 215 
33 442 1253 
34 1580 830 
35 944 1946 
EOF
